c FILE /home/rafael/Documents/HappySet/MIHS/inputs/happygen/output/graph_d_regular_k2_p0.2_v100_20241127_083957.txt
c SOURCE This is a d-regular graph formed for the happy graph colouring problem.
c DESCRIPTION It was generated using the problem generator of Rhyd Lewis
c
c GRAPH STATS
c Seed                             = 556497585
c Number of Nodes                  = 100
c Number of colours k              = 2
c Number of pre-assignments        = 20
c Degree of all vertices           = 6
c Density                          = 0.0606061
c 
c The degrees of nodes 1 to 100, respectively, are as follows 
c [6, 6, 6, 6, 6, 6, 6, 6, 6, 6, 6, 6, 6, 6, 6, 6, 6, 6, 6, 6, 6, 6, 6, 6, 6, 6, 
c  6, 6, 6, 6, 6, 6, 6, 6, 6, 6, 6, 6, 6, 6, 6, 6, 6, 6, 6, 6, 6, 6, 6, 6, 6, 
c  6, 6, 6, 6, 6, 6, 6, 6, 6, 6, 6, 6, 6, 6, 6, 6, 6, 6, 6, 6, 6, 6, 6, 6, 6, 
c  6, 6, 6, 6, 6, 6, 6, 6, 6, 6, 6, 6, 6, 6, 6, 6, 6, 6, 6, 6, 6, 6, 6, 6] 
c  
p edge 100 300 2
e 1 13
e 1 38
e 1 61
e 1 76
e 1 95
e 1 100
e 2 14
e 2 28
e 2 48
e 2 73
e 2 74
e 2 98
e 3 6
e 3 11
e 3 22
e 3 53
e 3 59
e 3 70
e 4 19
e 4 51
e 4 62
e 4 65
e 4 68
e 4 71
e 5 51
e 5 62
e 5 65
e 5 67
e 5 68
e 5 92
e 6 34
e 6 50
e 6 87
e 6 90
e 6 100
e 7 24
e 7 27
e 7 30
e 7 46
e 7 63
e 7 87
e 8 21
e 8 43
e 8 44
e 8 56
e 8 58
e 8 59
e 9 30
e 9 50
e 9 54
e 9 55
e 9 58
e 9 88
e 10 46
e 10 50
e 10 59
e 10 66
e 10 94
e 10 97
e 11 33
e 11 54
e 11 59
e 11 83
e 11 92
e 12 31
e 12 34
e 12 64
e 12 72
e 12 78
e 12 93
e 13 24
e 13 25
e 13 29
e 13 63
e 13 64
e 14 15
e 14 22
e 14 49
e 14 62
e 14 85
e 15 19
e 15 44
e 15 62
e 15 73
e 15 77
e 16 18
e 16 22
e 16 41
e 16 64
e 16 84
e 16 90
e 17 20
e 17 36
e 17 48
e 17 75
e 17 79
e 17 81
e 18 20
e 18 36
e 18 47
e 18 57
e 18 97
e 19 27
e 19 44
e 19 74
e 19 81
e 20 32
e 20 40
e 20 42
e 20 100
e 21 37
e 21 40
e 21 73
e 21 76
e 21 81
e 22 38
e 22 50
e 22 76
e 23 43
e 23 53
e 23 60
e 23 82
e 23 93
e 23 99
e 24 36
e 24 43
e 24 44
e 24 56
e 25 40
e 25 42
e 25 57
e 25 64
e 25 77
e 26 32
e 26 33
e 26 37
e 26 49
e 26 51
e 26 82
e 27 40
e 27 42
e 27 56
e 27 75
e 28 30
e 28 47
e 28 53
e 28 72
e 28 95
e 29 38
e 29 66
e 29 83
e 29 85
e 29 91
e 30 49
e 30 53
e 30 65
e 31 49
e 31 54
e 31 63
e 31 82
e 31 98
e 32 61
e 32 63
e 32 69
e 32 82
e 33 54
e 33 81
e 33 91
e 33 98
e 34 83
e 34 87
e 34 90
e 34 93
e 35 37
e 35 38
e 35 76
e 35 95
e 35 97
e 35 99
e 36 45
e 36 58
e 36 99
e 37 49
e 37 72
e 37 86
e 38 70
e 38 93
e 39 44
e 39 75
e 39 82
e 39 83
e 39 84
e 39 89
e 40 72
e 40 83
e 41 53
e 41 75
e 41 77
e 41 80
e 41 85
e 42 67
e 42 78
e 42 84
e 43 56
e 43 66
e 43 86
e 44 52
e 45 55
e 45 67
e 45 73
e 45 89
e 45 95
e 46 69
e 46 73
e 46 78
e 46 85
e 47 48
e 47 81
e 47 86
e 47 92
e 48 67
e 48 78
e 48 88
e 49 70
e 50 71
e 50 80
e 51 57
e 51 61
e 51 72
e 52 57
e 52 76
e 52 77
e 52 79
e 52 90
e 53 86
e 54 55
e 54 100
e 55 77
e 55 96
e 55 98
e 56 61
e 56 67
e 57 69
e 57 84
e 58 68
e 58 71
e 58 78
e 59 60
e 59 91
e 60 65
e 60 79
e 60 92
e 60 96
e 61 63
e 61 69
e 62 72
e 62 96
e 63 64
e 64 87
e 65 97
e 65 100
e 66 69
e 66 74
e 66 85
e 67 86
e 68 70
e 68 71
e 68 87
e 69 96
e 70 88
e 70 89
e 71 92
e 71 99
e 73 80
e 74 82
e 74 87
e 74 88
e 75 79
e 75 86
e 76 100
e 77 97
e 78 90
e 79 80
e 79 98
e 80 89
e 80 95
e 81 94
e 83 93
e 84 94
e 84 96
e 85 94
e 88 91
e 88 94
e 89 96
e 89 98
e 90 99
e 91 92
e 91 99
e 93 94
e 95 97
n 1 1
n 11 1
n 12 2
n 19 2
n 24 2
n 25 2
n 27 2
n 34 2
n 35 1
n 36 2
n 37 1
n 46 1
n 47 2
n 49 1
n 51 1
n 62 1
n 75 2
n 85 1
n 91 2
n 97 1
